NAME : portcgen-24-26
COMMENT : portcgen N=24, seed=26
TYPE : TSP
DIMENSION : 24
EDGE_WEIGHT_TYPE : EUC_2D
NODE_COORD_SECTION
1 -169402 -55195
2 146926 -222717
3 -8331 -81324
4 -216491 337328
5 -173920 84186
6 171260 6640
7 -89958 21086
8 -337046 -101370
9 63518 222626
10 -47626 -345031
11 -276959 310966
12 -148969 -64552
13 -112344 221717
14 -158224 -269024
15 271909 -537807
16 40662 -203847
17 281767 191446
18 -174449 -311751
19 134438 36760
20 284347 -86486
21 -450367 216695
22 -115595 181778
23 363666 -513301
24 406651 223255
